20	3	9	11	9	16	18	4	3	14	6	8	13	13	6	16	11	15	14	2	15	12	6	2	3	5	16	1	18	16	10	11	3	2	20	13	17	15	14	4	14	5	11	7	7	10	6	12	4	19
7	7	10	4	19	19	7	9	17	17	11	7	1	4	13	20	16	14	17	5	5	15	16	10	16	14	13	15	17	1	17	17	18	20	15	6	20	6	3	5	4	5	7	7	4	11	4	19	4	4
17	9	17	4	16	18	3	4	4	10	7	18	11	3	12	13	11	6	15	17	11	1	18	19	19	19	13	7	13	14	19	4	17	11	13	6	15	12	17	2	18	5	4	12	1	4	10	16	15	6
7	10	15	5	18	9	8	1	14	17	9	16	13	1	20	15	5	17	9	15	8	1	10	16	20	19	1	13	1	10	15	16	13	16	20	16	6	4	17	2	19	6	8	12	11	1	6	8	3	2
